p cnf 126 407
c t mc
4 -2 0
4 -3 0
2 3 -4 0
-4 -5 -6 0
4 5 -6 0
-4 5 6 0
4 -5 6 0
-6 -5 -7 0
6 5 -7 0
-6 5 7 0
6 -5 7 0
-1 7 -8 0
1 -7 -8 0
-1 -7 8 0
1 7 8 0
-10 -5 0
-10 9 0
5 -9 10 0
11 -10 0
11 -10 0
10 -11 0
12 8 0
12 11 0
-8 -11 -12 0
14 -13 0
14 4 0
13 -4 -14 0
-15 12 0
-15 14 0
-12 -14 15 0
-19 17 0
-19 18 0
-17 -18 19 0
-20 19 0
-20 -16 0
-19 16 20 0
21 16 0
21 -20 0
-16 20 -21 0
-22 -23 -24 0
22 23 -24 0
-22 23 24 0
22 -23 24 0
-2 -24 -25 0
2 24 -25 0
-2 24 25 0
2 -24 25 0
-26 -25 0
-26 16 0
25 -16 26 0
-25 -26 -27 0
25 26 -27 0
-25 26 27 0
25 -26 27 0
28 27 0
28 13 0
-27 -13 -28 0
-29 -21 0
-29 28 0
21 -28 29 0
1 -22 -30 0
-1 22 -30 0
1 22 30 0
-1 -22 30 0
30 -20 -31 0
-30 20 -31 0
30 20 31 0
-30 -20 31 0
13 31 -32 0
-13 -31 -32 0
13 -31 32 0
-13 31 32 0
-27 22 -33 0
27 -22 -33 0
-27 -22 33 0
27 22 33 0
34 32 0
34 -33 0
-32 33 -34 0
36 -35 0
36 35 0
-37 -34 0
-37 36 0
34 -36 37 0
-16 -13 -38 0
16 13 -38 0
-16 13 38 0
16 -13 38 0
-38 39 -40 0
38 -39 -40 0
-38 -39 40 0
38 39 40 0
-42 -31 0
-42 -41 0
31 41 42 0
-43 40 0
-43 -42 0
-40 42 43 0
44 38 0
44 39 0
-38 -39 -44 0
-43 -44 -45 0
43 44 -45 0
-43 44 45 0
43 -44 45 0
46 7 0
46 -26 0
-7 26 -46 0
18 46 -47 0
-18 -46 -47 0
18 -46 47 0
-18 46 47 0
48 35 0
48 -4 0
-35 4 -48 0
47 48 -49 0
-47 -48 -49 0
47 -48 49 0
-47 48 49 0
50 -45 0
50 -49 0
45 49 -50 0
-53 51 0
-53 -52 0
-51 52 53 0
-54 -50 0
-54 -53 0
50 53 54 0
-55 -37 0
-55 -54 0
37 54 55 0
56 29 0
56 -55 0
-29 55 -56 0
57 -2 0
57 -6 0
2 6 -57 0
-58 -57 0
-58 -35 0
57 35 58 0
52 8 -59 0
-52 -8 -59 0
52 -8 59 0
-52 8 59 0
60 58 0
60 -59 0
-58 59 -60 0
-61 20 0
-61 -41 0
-20 41 61 0
-60 61 -62 0
60 -61 -62 0
-60 -61 62 0
60 61 62 0
56 62 -63 0
-56 -62 -63 0
56 -62 63 0
-56 62 63 0
64 15 0
64 63 0
-15 -63 -64 0
-67 -10 0
-67 -66 0
10 66 67 0
68 67 0
68 4 0
-67 -4 -68 0
-69 -4 0
-69 -7 0
4 7 69 0
22 -10 -70 0
-22 10 -70 0
22 10 70 0
-22 -10 70 0
-71 -69 0
-71 70 0
69 -70 71 0
-68 -71 -72 0
68 71 -72 0
-68 71 72 0
68 -71 72 0
-65 72 -73 0
65 -72 -73 0
-65 -72 73 0
65 72 73 0
71 -26 -74 0
-71 26 -74 0
71 26 74 0
-71 -26 74 0
-75 -73 0
-75 74 0
73 -74 75 0
46 -76 0
-46 -76 0
77 -75 0
77 76 0
75 -76 -77 0
78 57 0
78 -46 0
-57 46 -78 0
-80 -26 0
-80 79 0
26 -79 80 0
-81 20 0
-81 -4 0
-20 4 81 0
82 -80 0
82 81 0
80 -81 -82 0
78 82 -83 0
-78 -82 -83 0
78 -82 83 0
-78 82 83 0
77 -83 -84 0
-77 83 -84 0
77 83 84 0
-77 -83 84 0
-3 -2 -85 0
3 2 -85 0
-3 2 85 0
3 -2 85 0
52 -85 -86 0
-52 85 -86 0
52 85 86 0
-52 -85 86 0
-18 -52 -87 0
18 52 -87 0
-18 52 87 0
18 -52 87 0
86 87 -88 0
-86 -87 -88 0
86 -87 88 0
-86 87 88 0
-89 2 0
-89 8 0
-2 -8 89 0
-88 89 -90 0
88 -89 -90 0
-88 -89 90 0
88 89 90 0
-91 -24 0
-91 18 0
24 -18 91 0
92 -90 0
92 91 0
90 -91 -92 0
93 84 0
93 -92 0
-84 92 -93 0
-94 25 0
-94 -16 0
-25 16 94 0
95 -94 0
95 38 0
94 -38 -95 0
-17 -11 -96 0
17 11 -96 0
-17 11 96 0
17 -11 96 0
95 96 -97 0
-95 -96 -97 0
95 -96 97 0
-95 96 97 0
26 -85 -98 0
-26 85 -98 0
26 85 98 0
-26 -85 98 0
-10 69 -99 0
10 -69 -99 0
-10 -69 99 0
10 69 99 0
-100 27 0
-100 -99 0
-27 99 100 0
102 101 0
102 16 0
-101 -16 -102 0
-103 100 0
-103 -102 0
-100 102 103 0
104 98 0
104 103 0
-98 -103 -104 0
-105 -31 0
-105 3 0
31 -3 105 0
-106 105 0
-106 31 0
-105 -31 106 0
107 -104 0
107 -106 0
104 106 -107 0
-108 97 0
-108 107 0
-97 -107 108 0
109 -87 0
109 -31 0
87 31 -109 0
110 -94 0
110 98 0
94 -98 -110 0
111 -110 0
111 -41 0
110 41 -111 0
-109 -111 -112 0
109 111 -112 0
-109 111 112 0
109 -111 112 0
70 -17 -113 0
-70 17 -113 0
70 17 113 0
-70 -17 113 0
70 -113 -114 0
-70 113 -114 0
70 113 114 0
-70 -113 114 0
13 31 -115 0
-13 -31 -115 0
13 -31 115 0
-13 31 115 0
116 114 0
116 -115 0
-114 115 -116 0
-112 116 -117 0
112 -116 -117 0
-112 -116 117 0
112 116 117 0
-118 -19 0
-118 -18 0
19 18 118 0
9 94 -119 0
-9 -94 -119 0
9 -94 119 0
-9 94 119 0
120 110 0
120 -70 0
-110 70 -120 0
-121 -119 0
-121 -120 0
119 120 121 0
122 118 0
122 121 0
-118 -121 -122 0
123 -117 0
123 122 0
117 -122 -123 0
108 -123 -124 0
-108 123 -124 0
108 123 124 0
-108 -123 124 0
125 93 0
125 -124 0
-93 124 -125 0
126 64 0
126 125 0
-64 -125 -126 0
-58 -31 -111 -112 -116 4 -21 60 0
75 -108 -38 119 49 25 61 0
-105 -50 19 112 126 0
76 -36 -49 42 -100 103 98 -88 109 -82 0
93 78 -85 126 -43 -63 0
-109 -106 -13 -60 0
15 87 -10 126 -99 -77 -34 -35 -107 103 0
-98 76 10 57 -66 121 97 0
-38 104 71 90 -114 -49 -4 0
-45 72 23 35 81 -15 121 -36 65 0
-92 -20 57 -56 0
92 98 93 109 0
-56 -120 -89 105 0
121 28 0
50 108 46 -5 77 0
92 -7 37 57 46 55 -60 122 -27 0
97 -54 96 0
-49 -69 -93 0
-78 -104 72 88 -9 -11 -33 -59 75 0
-11 -9 -35 13 -91 2 17 81 80 0
-37 44 -7 12 -88 108 73 -16 124 117 0
7 -79 -100 -18 8 41 -33 -108 -21 -114 0
-60 13 38 -98 76 124 80 -84 0
-69 -114 0
57 33 -82 -105 -6 -123 -95 -76 -118 47 0
-62 32 10 -5 68 54 -1 0
14 94 62 -52 84 0
110 39 16 8 -14 -88 -21 44 0
-62 30 4 -60 124 70 0
86 -89 75 -15 83 -6 0
23 -13 27 88 11 14 47 110 -111 -16 0
68 -78 -106 94 0
-73 94 -80 55 121 35 -17 -105 0
-34 -76 -30 -70 -53 55 43 123 -80 -16 0
-20 91 -78 0
-46 22 -114 -100 65 126 -59 -64 0
-77 -97 -105 37 15 -7 118 -4 0
-103 -69 -119 -7 -38 27 0
9 34 96 123 -53 -6 -74 50 107 -101 0
-53 -16 -117 126 0
-41 -26 -122 -125 71 0
74 56 72 -62 0
3 -25 -65 43 0
-39 100 20 80 -88 -71 55 3 0
-93 -69 63 -111 -121 0
-120 -115 105 -55 -66 0
-95 -6 82 -25 30 105 -57 -23 0
107 -108 -114 26 37 64 -92 -112 0
-26 -70 108 0
112 107 -76 0
126 0
